(set-logic QF_S)
(set-option :strings-exp true)
(set-option :produce-models true)
(declare-fun sigmaStar_0 () String)
(declare-fun sigmaStar_1 () String)
(declare-fun literal_2 () String)
(declare-fun x_3 () String)
(assert (= literal_2 "\x70\x6c\x75\x67\x69\x6e\x73\x2f"))
(assert (= x_3 (str.++ literal_2 sigmaStar_1)))
(assert (str.in.re x_3 (re.++ (re.* re.allchar) (re.++ (str.to.re "\x2f\x65\x76\x69\x6c") (re.* re.allchar)))))
(check-sat)
(get-model)
